
Value of objective function: 1.68390805

Actual values of the variables:
score                     1.68391
x_0_t_1                       0.5
x_1_t_1                       0.5
x_0_t_0                         0
x_0_t_2                       0.5
x_0_t_3                       0.5
x_0_t_4                  0.974713
x_0_t_5                  0.974713
x_0_t_6                  0.974713
x_0_t_7                  0.974713
x_0_t_8                  0.974713
x_0_t_9                  0.974713
x_0_t_10                 0.974713
x_0_t_11                 0.974713
x_0_t_12                 0.974713
x_0_t_13                 0.974713
x_0_t_14                 0.974713
x_0_t_15                 0.974713
x_1_t_0                         0
x_1_t_2                  0.816092
x_1_t_3                  0.816092
x_1_t_4                  0.816092
x_1_t_5                  0.816092
x_1_t_6                  0.816092
x_1_t_7                  0.816092
x_1_t_8                  0.816092
x_1_t_9                  0.816092
x_1_t_10                 0.816092
x_1_t_11                 0.816092
x_1_t_12                 0.816092
x_1_t_13                 0.816092
x_1_t_14                 0.816092
x_1_t_15                 0.816092
x_10_t_0                        0
x_10_t_1                        0
x_10_t_2                        0
x_10_t_3                        0
x_10_t_4                        0
x_10_t_5                        0
x_10_t_6                        0
x_10_t_7                        0
x_10_t_8                        0
x_10_t_9                        0
x_10_t_10                0.437931
x_10_t_11                0.683908
x_10_t_12                0.683908
x_10_t_13                0.683908
x_10_t_14                0.683908
x_10_t_15                0.683908
x_11_t_0                        0
x_11_t_1                        0
x_11_t_2                        0
x_11_t_3                        0
x_11_t_4                        0
x_11_t_5                        0
x_11_t_6                        0
x_11_t_7                        0
x_11_t_8                        0
x_11_t_9                        0
x_11_t_10                       0
x_11_t_11                0.316092
x_11_t_12                0.316092
x_11_t_13                0.316092
x_11_t_14                       1
x_11_t_15                       1
x_12_t_0                        0
x_12_t_1                        0
x_12_t_2                        0
x_12_t_3                        0
x_12_t_4                        0
x_12_t_5                        0
x_12_t_6                        0
x_12_t_7                        0
x_12_t_8                        0
x_12_t_9                        0
x_12_t_10                       0
x_12_t_11                       0
x_12_t_12               0.0689655
x_12_t_13                0.752874
x_12_t_14                0.752874
x_12_t_15                0.752874
x_13_t_0                        0
x_13_t_1                        0
x_13_t_2                        0
x_13_t_3                        0
x_13_t_4                        0
x_13_t_5                        0
x_13_t_6                        0
x_13_t_7                        0
x_13_t_8                        0
x_13_t_9                        0
x_13_t_10                       0
x_13_t_11                       0
x_13_t_12                       0
x_13_t_13                0.247126
x_13_t_14                0.247126
x_13_t_15                0.247126
x_14_t_0                        0
x_14_t_1                        0
x_14_t_2                        0
x_14_t_3                        0
x_14_t_4                        0
x_14_t_5                        0
x_14_t_6                        0
x_14_t_7                        0
x_14_t_8                        0
x_14_t_9                        0
x_14_t_10                       0
x_14_t_11                       0
x_14_t_12                       0
x_14_t_13                       0
x_14_t_14                       0
x_14_t_15                       0
x_2_t_0                         0
x_2_t_1                         0
x_2_t_2                  0.183908
x_2_t_3                  0.473563
x_2_t_4                  0.473563
x_2_t_5                  0.473563
x_2_t_6                  0.473563
x_2_t_7                  0.473563
x_2_t_8                  0.473563
x_2_t_9                  0.473563
x_2_t_10                 0.473563
x_2_t_11                 0.473563
x_2_t_12                 0.473563
x_2_t_13                 0.473563
x_2_t_14                 0.473563
x_2_t_15                 0.473563
x_3_t_0                         0
x_3_t_1                         0
x_3_t_2                         0
x_3_t_3                  0.526437
x_3_t_4                  0.526437
x_3_t_5                  0.526437
x_3_t_6                  0.947126
x_3_t_7                  0.947126
x_3_t_8                  0.947126
x_3_t_9                  0.947126
x_3_t_10                 0.947126
x_3_t_11                 0.947126
x_3_t_12                 0.947126
x_3_t_13                 0.947126
x_3_t_14                 0.947126
x_3_t_15                 0.947126
x_4_t_0                         0
x_4_t_1                         0
x_4_t_2                         0
x_4_t_3                         0
x_4_t_4                 0.0252874
x_4_t_5                  0.449425
x_4_t_6                  0.449425
x_4_t_7                  0.449425
x_4_t_8                  0.449425
x_4_t_9                  0.449425
x_4_t_10                 0.449425
x_4_t_11                 0.449425
x_4_t_12                 0.449425
x_4_t_13                 0.449425
x_4_t_14                 0.449425
x_4_t_15                 0.449425
x_5_t_0                         0
x_5_t_1                         0
x_5_t_2                         0
x_5_t_3                         0
x_5_t_4                         0
x_5_t_5                  0.550575
x_5_t_6                  0.550575
x_5_t_7                  0.550575
x_5_t_8                   0.74023
x_5_t_9                   0.74023
x_5_t_10                  0.74023
x_5_t_11                  0.74023
x_5_t_12                  0.74023
x_5_t_13                  0.74023
x_5_t_14                  0.74023
x_5_t_15                  0.74023
x_6_t_0                         0
x_6_t_1                         0
x_6_t_2                         0
x_6_t_3                         0
x_6_t_4                         0
x_6_t_5                         0
x_6_t_6                 0.0528736
x_6_t_7                  0.736782
x_6_t_8                  0.736782
x_6_t_9                  0.736782
x_6_t_10                 0.736782
x_6_t_11                 0.736782
x_6_t_12                 0.736782
x_6_t_13                 0.736782
x_6_t_14                 0.736782
x_6_t_15                 0.736782
x_7_t_0                         0
x_7_t_1                         0
x_7_t_2                         0
x_7_t_3                         0
x_7_t_4                         0
x_7_t_5                         0
x_7_t_6                         0
x_7_t_7                  0.263218
x_7_t_8                  0.263218
x_7_t_9                  0.263218
x_7_t_10                 0.562069
x_7_t_11                 0.562069
x_7_t_12                 0.562069
x_7_t_13                 0.562069
x_7_t_14                 0.562069
x_7_t_15                        1
x_8_t_0                         0
x_8_t_1                         0
x_8_t_2                         0
x_8_t_3                         0
x_8_t_4                         0
x_8_t_5                         0
x_8_t_6                         0
x_8_t_7                         0
x_8_t_8                   0.25977
x_8_t_9                  0.943678
x_8_t_10                 0.943678
x_8_t_11                 0.943678
x_8_t_12                 0.943678
x_8_t_13                 0.943678
x_8_t_14                 0.943678
x_8_t_15                        1
x_9_t_0                         0
x_9_t_1                         0
x_9_t_2                         0
x_9_t_3                         0
x_9_t_4                         0
x_9_t_5                         0
x_9_t_6                         0
x_9_t_7                         0
x_9_t_8                         0
x_9_t_9                 0.0563218
x_9_t_10                0.0563218
x_9_t_11                0.0563218
x_9_t_12                 0.931034
x_9_t_13                 0.931034
x_9_t_14                 0.931034
x_9_t_15                 0.931034
